32	0

0	2	2	3
3	2	4	5
9	4	7	9	10	12
2	3	6	7	10
7	4	8	9	10	12
10	4	8	9	12	14
7	4	8	11	14	16
9	3	13	15	18
3	2	11	16
7	3	11	14	16
7	3	13	15	18
7	4	13	15	16	18
5	3	22	24	25
9	1	15
2	1	17
7	5	19	20	21	24	25
1	5	19	20	21	24	25
5	3	22	24	25
10	2	26	28
4	3	23	26	28
3	1	22
2	3	23	26	28
10	2	27	29
7	2	26	28
10	2	26	28
3	2	27	29
5	1	31
5	2	30	31
3	2	30	31
5	1	32
10	1	32
0	0
